# Objective value = 95602
x66 0
x67 0
x68 1
x69 1
x70 0
x71 0
x72 0
x73 1
x74 1
x75 0
x76 0
x77 1
x78 1
x79 0
x80 1
x81 1
x82 0
x83 0
x84 1
x85 0
x86 0
x87 0
x88 1
x89 1
x90 0
x91 1
x92 1
x93 0
x94 0
x95 1
x96 1
x97 0
x98 1
x99 1
x100 0
x101 1
x102 0
x103 1
x104 1
x105 0
x106 1
x107 1
x108 0
x109 1
x110 1
x111 0
x112 1
x113 1
x114 0
x115 1
x116 1
x117 0
x118 1
x119 1
x120 1
x121 0
x122 1
x123 1
x124 0
x125 1
x126 1
x127 0
x128 1
x129 1
x130 1
x131 1
x132 1
x133 0
x134 0
x135 1
x136 0
x137 0
x138 1
x139 0
x140 0
x141 0
x142 0
x143 0
x144 1
x145 0
x146 0
x147 1
x148 0
x149 0
x150 1
x151 0
x152 0
x153 0
x154 0
x155 0
x156 1
x157 0
x158 1
x159 1
x160 0
x161 1
x162 1
x163 0
x164 1
x165 1
x166 1
x167 1
x168 1
x169 0
x170 0
x171 0
x172 1
x173 1
x174 0
x175 1
x176 1
x177 0
x178 1
x179 1
x180 1
x181 1
x182 1
x183 0
x184 0
x185 1
x186 0
x187 1
x188 1
x189 0
x190 1
x191 1
x192 0
x193 1
x194 1
x195 1
x196 1
x197 1
x198 0
x199 0
x200 1
x201 1
x202 1
x203 0
x204 0
x205 1
x206 0
x207 0
x208 1
x209 0
x210 1
x211 1
x212 0
x213 1
x214 1
x215 1
x216 0
x217 0
x218 1
x219 1
x220 0
x221 1
x222 1
x223 1
x224 0
x225 1
x226 0
x227 1
x228 1
x229 0
x230 1
x231 0
x232 1
x233 0
x234 1
x235 1
x236 0
x237 1
x238 0
x239 1
x240 1
x241 1
x242 0
x243 0
x244 1
x245 1
x246 1
x247 0
x248 1
x249 0
x250 1
x251 1
x252 1
x253 1
x254 0
x255 1
x256 1
x257 1
x258 1
x259 0
x260 1
x261 0
x262 1
x263 1
x264 1
x265 1
x266 0
x267 1
x268 1
x269 1
x270 1
x271 1
x272 1
x273 0
x274 1
x275 0
x276 0
x277 1
x278 0
x279 1
x280 0
x281 0
x282 0
x283 0
x284 0
x285 0
x286 0
x287 1
x288 1
x289 1
x290 1
x291 1
x292 0
x293 0
x294 1
x295 1
x296 1
x297 1
x298 1
x299 1
x300 0
x301 0
x302 1
x303 0
x304 1
x305 1
x306 1
x307 0
x308 0
x309 1
x310 1
x311 1
x312 1
x313 1
x314 1
x315 0
x316 1
x317 1
x318 1
x319 0
x320 0
x321 0
x322 0
x323 1
x324 1
x325 0
x326 0
x327 0
x328 0
x329 0
x330 0
x331 1
x332 0
x333 0
x334 0
x335 1
x336 1
x337 1
x338 1
x339 1
x340 0
x341 0
x342 1
x343 1
x344 1
x345 1
x346 1
x347 1
x348 0
x349 1
x350 1
x351 0
x352 0
x353 1
x354 1
x355 0
x356 1
x357 1
x358 1
x359 0
x360 1
x361 1
x362 1
x363 1
x364 1
x365 1
x366 0
x367 1
x368 1
x369 0
x370 1
x371 1
x372 0
x373 1
x374 1
x375 0
x376 0
x377 0
x378 1
x379 0
x380 0
x381 0
x382 0
x383 0
x384 0
x385 1
x386 0
x387 0
x388 1
x389 0
x390 0
x391 0
x392 0
x393 1
x394 0
x395 1
x396 1
x397 1
x398 0
x399 1
x400 1
x401 1
x402 1
x403 1
x404 1
x405 0
x406 1
x407 1
x408 0
x409 1
x410 1
x411 0
x412 0
x413 1
x414 1
x415 0
x416 1
x417 1
x418 1
x419 0
x420 1
x421 1
x422 1
x423 1
x424 1
x425 1
x426 0
x427 1
x428 1
x429 0
x430 1
x431 1
x432 0
x433 1
x434 0
x435 1
x436 1
x437 0
x438 1
x439 1
x440 0
x441 1
x442 1
x443 1
x444 1
x445 1
x446 0
x447 0
x448 1
x449 0
x450 1
x451 1
x452 0
x453 0
x454 0
x455 0
x456 0
x457 0
x458 1
x459 1
x460 0
x461 1
x462 1
x463 0
x464 1
x465 1
x466 1
x467 1
x468 1
x469 0
x470 0
x471 1
x472 1
x473 0
x474 1
x475 1
x476 0
x477 1
x478 1
x479 1
x480 0
x481 1
x482 0
x483 1
x484 0
x485 1
x486 1
x487 0
x488 1
x489 1
x490 0
x491 1
x492 1
x493 1
x494 0
x495 1
x496 0
x497 1
x498 1
x499 0
x500 1
x501 1
x502 0
x503 1
x504 1
x505 1
x506 1
x507 1
x508 1
x509 0
x510 1
x511 0
x512 1
x513 1
x514 1
x515 1
x516 1
x517 0
x518 1
x519 0
x520 0
x521 0
x522 0
x523 0
x524 0
x525 1
x526 0
x527 1
x528 0
x529 0
x530 0
x531 0
x532 0
x533 1
x534 1
x535 0
x536 1
x537 1
x538 1
x539 1
x540 1
x541 1
x542 0
x543 1
x544 0
x545 1
x546 1
x547 1
x548 1
x549 0
x550 1
x551 0
x552 0
x553 0
x554 1
x555 1
x556 0
x557 0
x558 1
x559 0
x560 0
x561 0
x562 1
x563 0
x564 0
x565 0
x566 0
x567 1
x568 0
x569 0
x570 1
x571 1
x572 1
x573 0
x574 1
x575 1
x576 1
x577 0
x578 1
x579 0
x580 1
x581 0
x582 1
x583 1
x584 1
x585 1
x586 0
x587 1
x588 0
x589 0
x590 1
x591 1
x592 1
x593 0
x594 1
x595 1
x596 1
x597 0
x598 1
x599 1
x600 1
x601 0
x602 1
x603 1
x604 1
x605 1
x606 0
x607 1
x608 0
x609 1
x610 0
x611 1
x612 1
x613 1
x614 0
x615 1
x616 1
x617 1
x618 0
x619 1
x620 1
x621 1
x622 0
x623 1
x624 1
x625 1
x626 1
x627 0
x628 1
x629 0
x630 1
x631 1
x632 0
x633 1
x634 0
x635 1
x636 1
x637 1
x638 1
x639 1
x640 0
x641 1
x642 1
x643 1
x644 0
x645 1
x646 1
x647 1
x648 1
x649 0
x650 1
x651 0
x652 1
x653 1
x654 1
x655 0
x656 1
x657 0
x658 1
x659 1
x660 1
x661 1
x662 1
x663 0
x664 1
x665 1
x666 1
x667 0
x668 1
x669 1
x670 1
x671 1
x672 0
x673 1
x674 0
x675 1
x676 1
x677 1
x678 1
x679 0
x680 1
x681 0
x682 1
x683 1
x684 1
x685 0
x686 1
x687 0
x688 1
x689 1
x690 1
x691 0
x692 1
x693 1
x694 1
x695 1
x696 0
x697 1
x698 0
x699 1
x700 1
x701 1
x702 1
x703 1
x704 1
x705 1
x706 1
x707 0
x708 0
x709 0
x710 0
x711 0
x712 1
x713 0
x714 0
x715 0
x716 1
x717 0
x718 0
x719 0
x720 0
x721 1
x722 0
x723 1
x724 0
x725 0
x726 0
x727 0
x728 0
x729 0
x730 0
x731 1
x732 1
x733 0
x734 1
x735 1
x736 0
x737 1
x738 1
x739 1
x740 1
x741 1
x742 0
x743 1
x744 1
x745 0
x746 1
x747 0
x748 1
x749 1
x750 0
x751 1
x752 0
x753 0
x754 1
x755 1
x756 1
x757 1
x758 1
x759 0
x760 1
x761 1
x762 1
x763 1
x764 1
x765 0
x766 1
x767 1
x768 0
x769 1
x770 1
x771 0
x772 1
x773 1
x774 1
x775 1
x776 1
x777 0
x778 1
x779 1
x780 1
x781 1
x782 1
x783 1
x784 1
x785 0
x786 0
x787 1
x788 0
x789 0
x790 1
x791 0
x792 0
x793 0
x794 1
x795 0
x796 1
x797 0
x798 0
x799 0
x800 1
x801 0
x802 0
x803 0
x804 1
x805 0
x806 0
x807 1
x808 0
x809 0
x810 1
x811 0
x812 0
x813 0
x814 1
x815 0
x816 0
x817 1
x818 0
x819 1
x820 0
x821 0
x822 0
x823 0
x824 1
x825 0
x826 1
x827 1
x828 0
x829 1
x830 1
x831 1
x832 1
x833 1
x834 1
x835 0
x836 1
x837 1
x838 0
x839 1
x840 1
x841 1
x842 1
x843 1
x844 1
x845 0
x846 0
x847 0
x848 0
x849 1
x850 0
x851 1
x852 1
x853 1
x854 1
x855 1
x856 1
x857 0
x858 1
x859 1
x860 0
x861 1
x862 1
x863 1
x864 1
x865 1
x866 1
x867 0
x868 0
x869 1
x870 0
x871 1
x872 1
x873 0
x874 1
x875 1
x876 1
x877 1
x878 1
x879 1
x880 0
x881 1
x882 1
x883 0
x884 1
x885 1
x886 0
x887 1
x888 1
x889 1
x890 0
x891 0
x892 1
x893 1
x894 0
x895 1
x896 1
x897 1
x898 0
x899 0
x900 1
x901 1
x902 0
x903 1
x904 1
x905 1
x906 1
x907 0
x908 1
x909 1
x910 1
x911 1
x912 1
x913 1
x914 0
x915 0
x916 1
x917 1
x918 1
x919 1
x920 0
x921 0
x922 0
x923 1
x924 0
x925 0
x926 0
x927 1
x928 0
x929 1
x930 1
x931 0
x932 1
x933 0
x934 0
x935 0
x936 0
x937 0
x938 0
x939 1
x940 1
x941 0
x942 0
x943 0
x944 0
x945 0
x946 1
x947 1
x948 1
x949 0
x950 1
x951 1
x952 1
x953 0
x954 1
x955 1
x956 1
x957 0
x958 0
x959 1
x960 1
x961 1
x962 1
x963 1
x964 1
x965 0
x966 0
x967 1
x968 1
x969 1
x970 1
x971 0
x972 0
x973 1
x974 1
x975 1
x976 0
x977 1
x978 1
x979 1
x980 0
x981 1
x982 1
x983 1
x984 1
x985 0
x986 1
x987 1
x988 1
x989 1
x990 1
x991 1
x992 0
x993 0
x994 1
x995 1
x996 1
x997 1
x998 0
x999 1
x1000 0
x1001 1
x1002 0
x1003 1
x1004 1
x1005 1
x1006 1
x1007 1
x1008 0
x1009 1
x1010 1
x1011 1
x1012 1
x1013 1
x1014 1
x1015 1
x1016 0
x1017 1
x1018 1
x1019 1
x1020 0
x1021 0
x1022 1
x1023 1
x1024 1
x1025 1
x1026 0
x1027 1
x1028 1
x1029 0
x1030 1
x1031 0
x1032 1
x1033 1
x1034 1
x1035 1
x1036 1
x1037 0
x1038 1
x1039 1
x1040 0
x1041 1
x1042 1
x1043 1
x1044 1
x1045 0
x1046 1
x1047 1
x1048 1
x1049 0
x1050 0
x1051 1
x1052 1
x1053 1
x1054 1
x1055 0
x1056 1
x1057 1
x1058 1
x1059 1
x1060 0
x1061 1
x1062 0
x1063 0
x1064 0
x1065 1
x1066 0
x1067 1
x1068 0
x1069 0
x1070 0
x1071 1
x1072 0
x1073 0
x1074 0
x1075 1
x1076 0
x1077 0
x1078 0
x1079 1
x1080 1
x1081 0
x1082 0
x1083 0
x1084 0
x1085 1
x1086 0
x1087 0
x1088 0
x1089 0
x1090 0
x1091 0
x1092 0
x1093 1
x1094 1
x1095 1
x1096 1
x1097 1
x1098 0
x1099 1
x1100 1
x1101 1
x1102 1
x1103 1
x1104 1
x1105 1
x1106 0
x1107 1
x1108 1
x1109 1
x1110 0
x1111 0
x1112 1
x1113 1
x1114 1
x1115 1
x1116 0
x1117 1
x1118 1
x1119 1
x1120 1
x1121 0
x1 1
x2 0
x3 0
x4 1
x5 0
x6 0
x7 1
x8 0
x9 0
x10 0
x11 0
x12 0
x13 1
x14 1
x15 0
x16 0
x17 0
x18 1
x19 0
x20 0
x21 0
x22 0
x23 0
x24 0
x25 1
x26 0
x27 0
x28 1
x29 0
x30 0
x31 1
x32 0
x33 0
x34 0
x35 1
x36 0
x37 0
x38 0
x39 0
x40 1
x41 0
x42 1
x43 0
x44 0
x45 0
x46 0
x47 0
x48 0
x49 1
x50 0
x51 0
x52 0
x53 1
x54 1
x55 0
x56 0
x57 0
x58 0
x59 1
x60 0
x61 0
x62 0
x63 0
x64 1
x65 0
